229983.0
1885
0 2 3 5 6 7 9 13 14 21 22 25 26 27 28 30 32 33 34 35 38 41 45 46 49 51 55 58 62 65 68 69 70 71 72 75 79 80 81 83 84 86 87 88 89 96 97 98 100 103 107 109 110 111 114 116 119 120 121 124 125 127 128 129 130 132 133 134 135 137 143 144 146 150 152 154 157 158 162 163 166 167 168 170 173 174 176 182 183 187 190 198 199 